
Gurobi 11.0.3 (linux64) logging started Mon Aug 25 12:53:47 2025

Set parameter LogFile to value "/home/yihong/Coding/OR_SUC/SUC_epstheta_results_bigM100000_thread4/case24_ieee_rts_theta0.1_epsilon0.2_gurobi_seed50000_num_gen100_N_WDR50_load_scaling_factor1_ori_eps_T2quadra_cost_bc1.03.txt"
Set parameter TimeLimit to value 3600
Gurobi Optimizer version 11.0.3 build v11.0.3rc0 (linux64 - "Ubuntu 20.04.6 LTS")

CPU model: AMD EPYC 7532 32-Core Processor, instruction set [SSE2|AVX|AVX2]
Thread count: 64 physical cores, 128 logical processors, using up to 4 threads

Academic license 2399124 - for non-commercial use only - registered to yi___@ed.ac.uk
Optimize a model with 5070 rows, 2531 columns and 192230 nonzeros
Model fingerprint: 0xc8e975af
Model has 200 quadratic constraints
Variable types: 2331 continuous, 200 integer (200 binary)
Coefficient statistics:
  Matrix range     [3e-04, 3e+03]
  QMatrix range    [2e-03, 8e-03]
  QLMatrix range   [2e-01, 6e+01]
  Objective range  [1e+00, 1e+00]
  Bounds range     [1e+00, 1e+00]
  RHS range        [1e+00, 8e+03]
Presolve removed 4458 rows and 1264 columns
Presolve time: 0.03s
Presolved: 612 rows, 1267 columns, 5682 nonzeros
Presolved model has 200 quadratic constraint(s)
Variable types: 1067 continuous, 200 integer (200 binary)

Root relaxation: objective 2.010405e+03, 350 iterations, 0.00 seconds (0.00 work units)

    Nodes    |    Current Node    |     Objective Bounds      |     Work
 Expl Unexpl |  Obj  Depth IntInf | Incumbent    BestBd   Gap | It/Node Time

     0     0 2010.40537    0    4          - 2010.40537      -     -    0s
     0     0 2382.81068    0   98          - 2382.81068      -     -    0s
     0     0 31965.6217    0   62          - 31965.6217      -     -    0s
     0     0 32394.9811    0   60          - 32394.9811      -     -    0s
     0     0 35453.0630    0   18          - 35453.0630      -     -    0s
     0     0 35455.0201    0   18          - 35455.0201      -     -    0s
     0     0 35456.8800    0   12          - 35456.8800      -     -    0s
     0     0 35458.8648    0   12          - 35458.8648      -     -    0s
     0     0 35458.8648    0   12          - 35458.8648      -     -    0s
     0     2 35458.8648    0   12          - 35458.8648      -     -    0s
H  107    96                    35653.569263 35462.1418  0.54%   9.3    0s
*  107    96              23    35653.569263 35466.1009  0.53%   9.5    0s
H  115    96                    35512.774610 35466.5535  0.13%   9.7    0s
*  115    96              14    35512.774610 35466.5535  0.13%   9.7    0s
H  130    96                    35483.614315 35466.5535  0.05%   9.9    0s
*  130    96              14    35483.614315 35466.5535  0.05%   9.9    0s

Cutting planes:
  Gomory: 11
  Implied bound: 67
  MIR: 25
  Flow cover: 105
  RLT: 2

Explored 131 nodes (2775 simplex iterations) in 0.52 seconds (0.42 work units)
Thread count was 4 (of 128 available processors)

Solution count 3: 35483.6 35512.8 35653.6 

Optimal solution found (tolerance 1.00e-03)
Warning: max constraint violation (5.0357e-09) exceeds tolerance
Best objective 3.548361431462e+04, best bound 3.546655350494e+04, gap 0.0481%

Gurobi 11.0.3 (linux64) logging started Mon Aug 25 12:53:48 2025

Set parameter LogFile to value "/home/yihong/Coding/OR_SUC/SUC_epstheta_results_bigM100000_thread4/case24_ieee_rts_theta0.1_epsilon0.2_gurobi_seed50000_num_gen100_N_WDR50_load_scaling_factor1_ori_eps_T2quadra_cost_bc1.03.txt"
Set parameter TimeLimit to value 3600
Gurobi Optimizer version 11.0.3 build v11.0.3rc0 (linux64 - "Ubuntu 20.04.6 LTS")

CPU model: AMD EPYC 7532 32-Core Processor, instruction set [SSE2|AVX|AVX2]
Thread count: 64 physical cores, 128 logical processors, using up to 4 threads

Academic license 2399124 - for non-commercial use only - registered to yi___@ed.ac.uk
Optimize a model with 11154 rows, 2532 columns and 850651 nonzeros
Model fingerprint: 0x1746daff
Model has 201 quadratic constraints
Variable types: 2332 continuous, 200 integer (200 binary)
Coefficient statistics:
  Matrix range     [3e-04, 3e+03]
  QMatrix range    [2e-03, 5e+01]
  QLMatrix range   [2e-01, 6e+01]
  Objective range  [1e+00, 1e+00]
  Bounds range     [2e-01, 1e+00]
  RHS range        [5e-02, 4e+04]
  QRHS range       [5e+00, 5e+00]
Presolve removed 3406 rows and 1121 columns
Presolve time: 0.75s
Presolved: 7950 rows, 1612 columns, 171591 nonzeros
Presolved model has 200 quadratic constraint(s)
Presolved model has 1 bilinear constraint(s)
Warning: Model contains variables with very large bounds participating
         in product terms.
         Presolve was not able to compute smaller bounds for these variables.
         Consider bounding these variables or reformulating the model.


Solving non-convex MIQCP

Variable types: 1408 continuous, 204 integer (204 binary)

Root relaxation: objective 0.000000e+00, 748 iterations, 0.12 seconds (0.28 work units)

    Nodes    |    Current Node    |     Objective Bounds      |     Work
 Expl Unexpl |  Obj  Depth IntInf | Incumbent    BestBd   Gap | It/Node Time

     0     0    0.00000    0    6          -    0.00000      -     -    2s
     0     0    0.00000    0    4          -    0.00000      -     -    2s
     0     0    0.00000    0    1          -    0.00000      -     -    2s
H    0     0                       0.0607007    0.00000   100%     -  150s
H    0     0                       0.0330682    0.00000   100%     -  150s
H    0     0                       0.0277921    0.00000   100%     -  150s

Cutting planes:
  Implied bound: 3
  MIR: 4
  Flow cover: 2
  RLT: 1

Explored 1 nodes (863 simplex iterations) in 150.79 seconds (95.90 work units)
Thread count was 4 (of 128 available processors)

Solution count 3: 0.0277921 0.0330682 0.0607007 

Optimal solution found (tolerance 1.00e-03)
Best objective 2.779210379393e-02, best bound 2.779210379393e-02, gap 0.0000%
